c "random instance"
p edges 150 1138
e 1 6
e 1 9
e 1 11
e 1 18
e 1 36
e 1 67
e 1 73
e 1 97
e 1 122
e 1 124
e 1 134
e 1 139
e 1 144
e 1 149
e 2 4
e 2 21
e 2 38
e 2 55
e 2 62
e 2 68
e 2 69
e 2 99
e 2 100
e 2 109
e 2 113
e 2 125
e 2 127
e 2 131
e 2 133
e 2 143
e 3 12
e 3 13
e 3 32
e 3 41
e 3 64
e 3 68
e 3 72
e 3 73
e 3 93
e 3 117
e 3 138
e 3 147
e 4 15
e 4 23
e 4 41
e 4 43
e 4 55
e 4 59
e 4 66
e 4 74
e 4 87
e 4 106
e 4 125
e 4 140
e 5 6
e 5 19
e 5 27
e 5 37
e 5 44
e 5 47
e 5 64
e 5 65
e 5 68
e 5 127
e 5 139
e 6 8
e 6 13
e 6 15
e 6 17
e 6 51
e 6 54
e 6 57
e 6 68
e 6 76
e 6 82
e 6 103
e 6 108
e 6 129
e 6 134
e 7 22
e 7 26
e 7 54
e 7 55
e 7 81
e 7 84
e 7 92
e 7 108
e 7 111
e 7 126
e 8 12
e 8 17
e 8 32
e 8 36
e 8 46
e 8 55
e 8 56
e 8 58
e 8 61
e 8 100
e 8 103
e 8 106
e 8 112
e 8 118
e 8 140
e 9 17
e 9 34
e 9 35
e 9 39
e 9 47
e 9 50
e 9 53
e 9 56
e 9 60
e 9 61
e 9 64
e 9 68
e 9 73
e 9 75
e 9 78
e 9 87
e 9 92
e 9 97
e 9 104
e 9 108
e 9 110
e 9 113
e 9 130
e 9 142
e 9 146
e 9 150
e 10 35
e 10 41
e 10 51
e 10 52
e 10 59
e 10 77
e 10 80
e 10 113
e 10 135
e 10 147
e 10 148
e 11 18
e 11 22
e 11 32
e 11 48
e 11 49
e 11 51
e 11 67
e 11 74
e 11 78
e 11 79
e 11 88
e 11 94
e 11 104
e 11 105
e 11 146
e 11 147
e 12 16
e 12 22
e 12 28
e 12 36
e 12 57
e 12 60
e 12 62
e 12 65
e 12 66
e 12 98
e 12 109
e 12 120
e 12 131
e 12 134
e 12 139
e 12 147
e 13 27
e 13 36
e 13 47
e 13 49
e 13 57
e 13 84
e 13 94
e 13 103
e 13 146
e 13 148
e 14 32
e 14 44
e 14 52
e 14 56
e 14 80
e 14 97
e 14 104
e 14 107
e 14 110
e 14 120
e 14 141
e 15 22
e 15 26
e 15 38
e 15 45
e 15 46
e 15 50
e 15 55
e 15 96
e 15 98
e 15 105
e 15 106
e 15 111
e 15 115
e 15 129
e 15 142
e 16 50
e 16 51
e 16 52
e 16 57
e 16 58
e 16 69
e 16 91
e 16 100
e 16 110
e 16 117
e 16 137
e 16 138
e 17 26
e 17 32
e 17 37
e 17 52
e 17 58
e 17 99
e 17 100
e 17 107
e 17 132
e 17 134
e 17 147
e 18 29
e 18 59
e 18 63
e 18 75
e 18 77
e 18 82
e 18 104
e 18 116
e 18 123
e 18 131
e 18 132
e 18 137
e 18 149
e 18 150
e 19 24
e 19 25
e 19 37
e 19 43
e 19 46
e 19 61
e 19 65
e 19 68
e 19 96
e 19 99
e 19 105
e 19 106
e 19 112
e 19 120
e 19 123
e 19 140
e 19 144
e 20 29
e 20 33
e 20 38
e 20 56
e 20 61
e 20 73
e 20 75
e 20 115
e 20 124
e 20 127
e 20 150
e 21 26
e 21 47
e 21 48
e 21 53
e 21 60
e 21 66
e 21 75
e 21 83
e 21 97
e 21 103
e 21 114
e 21 138
e 21 142
e 21 146
e 22 25
e 22 31
e 22 32
e 22 35
e 22 43
e 22 72
e 22 89
e 22 109
e 22 129
e 22 145
e 23 69
e 23 84
e 23 93
e 23 99
e 23 119
e 23 123
e 23 125
e 23 126
e 23 150
e 24 26
e 24 34
e 24 55
e 24 59
e 24 61
e 24 75
e 24 85
e 24 130
e 24 132
e 24 145
e 24 148
e 25 48
e 25 52
e 25 57
e 25 67
e 25 77
e 25 78
e 25 80
e 25 83
e 25 102
e 25 107
e 25 112
e 25 116
e 25 119
e 25 126
e 25 136
e 25 146
e 25 147
e 25 148
e 26 27
e 26 53
e 26 56
e 26 64
e 26 75
e 26 77
e 26 80
e 26 81
e 26 85
e 26 97
e 26 146
e 27 35
e 27 46
e 27 56
e 27 65
e 27 69
e 27 88
e 27 132
e 28 40
e 28 47
e 28 52
e 28 61
e 28 68
e 28 71
e 28 76
e 28 79
e 28 82
e 28 83
e 28 95
e 28 102
e 28 104
e 28 114
e 28 123
e 28 125
e 28 132
e 28 140
e 28 143
e 29 41
e 29 49
e 29 57
e 29 72
e 29 86
e 29 89
e 29 121
e 29 126
e 29 138
e 29 142
e 29 147
e 30 33
e 30 37
e 30 44
e 30 51
e 30 59
e 30 60
e 30 69
e 30 83
e 30 86
e 30 101
e 30 102
e 30 115
e 30 133
e 31 36
e 31 47
e 31 50
e 31 55
e 31 57
e 31 64
e 31 70
e 31 92
e 31 105
e 31 114
e 31 122
e 31 141
e 31 142
e 32 56
e 32 59
e 32 61
e 32 67
e 32 88
e 32 95
e 32 96
e 32 100
e 32 104
e 32 132
e 33 35
e 33 42
e 33 58
e 33 61
e 33 68
e 33 109
e 33 124
e 33 125
e 33 126
e 33 137
e 33 146
e 34 44
e 34 48
e 34 54
e 34 59
e 34 66
e 34 71
e 34 76
e 34 91
e 34 92
e 34 98
e 34 102
e 34 108
e 34 110
e 34 121
e 34 137
e 34 140
e 35 58
e 35 63
e 35 73
e 35 97
e 35 99
e 35 124
e 35 133
e 35 136
e 35 142
e 35 146
e 36 49
e 36 71
e 36 95
e 36 97
e 36 101
e 36 107
e 36 110
e 36 113
e 36 122
e 36 130
e 37 57
e 37 65
e 37 77
e 37 78
e 37 80
e 37 104
e 37 122
e 37 131
e 37 135
e 38 58
e 38 94
e 38 97
e 38 98
e 38 108
e 38 113
e 38 130
e 38 132
e 38 141
e 38 147
e 39 52
e 39 83
e 39 84
e 39 99
e 39 103
e 39 107
e 39 109
e 39 113
e 39 126
e 39 145
e 40 43
e 40 49
e 40 58
e 40 62
e 40 66
e 40 72
e 40 78
e 40 83
e 40 86
e 40 93
e 40 98
e 40 105
e 40 112
e 40 117
e 40 119
e 40 138
e 40 139
e 40 140
e 41 42
e 41 71
e 41 76
e 41 77
e 41 97
e 41 98
e 41 100
e 41 103
e 41 110
e 41 140
e 41 142
e 42 56
e 42 59
e 42 78
e 42 82
e 42 97
e 42 101
e 42 110
e 42 120
e 42 124
e 42 127
e 42 130
e 42 140
e 43 54
e 43 63
e 43 90
e 43 94
e 43 96
e 43 107
e 43 133
e 43 134
e 44 45
e 44 50
e 44 51
e 44 57
e 44 59
e 44 63
e 44 93
e 44 100
e 44 119
e 44 122
e 44 127
e 44 129
e 44 137
e 44 141
e 44 148
e 45 48
e 45 60
e 45 65
e 45 87
e 45 90
e 45 101
e 45 130
e 45 133
e 45 139
e 45 142
e 46 47
e 46 48
e 46 69
e 46 73
e 46 97
e 46 103
e 46 111
e 46 119
e 46 136
e 47 49
e 47 53
e 47 63
e 47 69
e 47 80
e 47 85
e 47 96
e 47 121
e 47 122
e 47 132
e 47 140
e 47 145
e 48 53
e 48 57
e 48 73
e 48 76
e 48 89
e 48 100
e 48 123
e 48 146
e 48 148
e 48 149
e 49 59
e 49 70
e 49 85
e 49 93
e 49 97
e 49 118
e 49 130
e 49 137
e 50 70
e 50 78
e 50 80
e 50 82
e 50 86
e 50 94
e 50 95
e 50 97
e 50 98
e 50 99
e 50 101
e 50 111
e 50 114
e 50 137
e 50 143
e 51 65
e 51 74
e 51 96
e 51 102
e 51 106
e 51 111
e 51 123
e 51 126
e 51 130
e 51 134
e 51 139
e 51 140
e 52 70
e 52 79
e 52 83
e 52 92
e 52 95
e 52 101
e 52 102
e 52 110
e 52 121
e 52 122
e 52 141
e 52 142
e 52 145
e 52 148
e 53 59
e 53 62
e 53 67
e 53 68
e 53 73
e 53 87
e 53 88
e 53 97
e 53 101
e 53 110
e 53 111
e 53 116
e 53 139
e 53 141
e 54 84
e 54 101
e 54 102
e 54 104
e 54 105
e 54 107
e 54 108
e 54 118
e 54 130
e 54 135
e 55 58
e 55 62
e 55 65
e 55 83
e 55 84
e 55 85
e 55 112
e 55 123
e 55 125
e 55 134
e 55 141
e 55 143
e 55 144
e 56 86
e 56 137
e 57 59
e 57 88
e 57 99
e 57 107
e 57 110
e 57 125
e 57 136
e 57 139
e 57 142
e 57 147
e 58 62
e 58 68
e 58 95
e 58 100
e 58 111
e 58 116
e 58 123
e 58 136
e 58 138
e 58 139
e 58 140
e 58 146
e 58 149
e 59 62
e 59 66
e 59 70
e 59 78
e 59 87
e 59 103
e 59 110
e 59 120
e 59 124
e 60 81
e 60 82
e 60 83
e 60 86
e 60 96
e 60 98
e 60 102
e 60 112
e 60 123
e 60 128
e 60 135
e 61 84
e 61 90
e 61 109
e 61 115
e 61 120
e 61 124
e 61 132
e 62 73
e 62 85
e 62 86
e 62 94
e 62 127
e 62 130
e 63 79
e 63 84
e 63 88
e 63 90
e 63 102
e 63 106
e 63 112
e 63 113
e 63 116
e 63 126
e 63 139
e 63 144
e 64 71
e 64 77
e 64 89
e 64 91
e 64 93
e 64 100
e 64 102
e 64 104
e 64 119
e 64 135
e 64 148
e 64 149
e 65 71
e 65 73
e 65 79
e 65 93
e 65 97
e 65 102
e 65 108
e 65 109
e 65 110
e 65 127
e 65 136
e 65 137
e 65 140
e 65 141
e 66 76
e 66 78
e 66 93
e 66 128
e 66 129
e 66 130
e 66 131
e 66 135
e 66 141
e 67 78
e 67 114
e 67 126
e 67 129
e 68 71
e 68 82
e 68 89
e 68 91
e 68 92
e 68 105
e 68 118
e 69 74
e 69 75
e 69 87
e 69 98
e 69 120
e 69 124
e 69 130
e 69 147
e 70 81
e 70 90
e 70 99
e 70 109
e 70 117
e 70 128
e 71 82
e 71 86
e 71 88
e 71 103
e 71 107
e 71 122
e 71 124
e 71 125
e 71 132
e 71 139
e 71 149
e 72 92
e 72 110
e 72 112
e 72 117
e 72 118
e 72 132
e 72 148
e 73 77
e 73 86
e 73 92
e 73 98
e 73 103
e 73 109
e 73 111
e 73 117
e 73 120
e 73 140
e 74 100
e 74 108
e 74 109
e 74 111
e 74 112
e 74 116
e 74 122
e 74 126
e 74 137
e 75 78
e 75 88
e 75 96
e 75 146
e 75 148
e 76 85
e 76 102
e 76 121
e 76 140
e 76 145
e 77 81
e 77 87
e 77 89
e 77 108
e 77 116
e 77 119
e 77 120
e 77 139
e 77 148
e 78 110
e 78 115
e 78 116
e 78 123
e 78 149
e 79 93
e 79 109
e 79 121
e 79 138
e 79 147
e 79 150
e 80 95
e 80 108
e 80 121
e 80 123
e 80 124
e 80 131
e 80 142
e 81 98
e 81 108
e 81 122
e 81 128
e 81 129
e 81 143
e 81 150
e 82 83
e 82 95
e 82 97
e 82 104
e 82 105
e 82 115
e 82 142
e 82 144
e 83 85
e 83 90
e 83 94
e 83 101
e 83 108
e 83 111
e 83 114
e 83 125
e 83 128
e 84 99
e 84 126
e 84 141
e 85 88
e 85 89
e 85 90
e 85 95
e 85 109
e 85 112
e 85 127
e 85 135
e 85 144
e 85 145
e 85 147
e 86 87
e 86 95
e 86 98
e 86 99
e 86 110
e 86 114
e 86 127
e 86 142
e 87 104
e 87 119
e 87 122
e 87 136
e 87 145
e 87 148
e 87 150
e 88 95
e 88 118
e 88 132
e 88 147
e 89 116
e 89 140
e 89 142
e 89 147
e 90 103
e 90 120
e 90 138
e 90 146
e 90 147
e 91 94
e 91 107
e 91 111
e 91 121
e 91 131
e 92 101
e 92 115
e 92 117
e 92 127
e 92 143
e 92 148
e 93 96
e 93 97
e 93 111
e 93 123
e 93 127
e 94 117
e 94 121
e 94 125
e 94 128
e 94 134
e 94 138
e 95 101
e 95 105
e 95 110
e 95 124
e 95 132
e 95 136
e 95 146
e 95 148
e 96 110
e 96 123
e 96 124
e 96 131
e 96 147
e 97 111
e 97 114
e 97 119
e 97 134
e 97 146
e 97 150
e 98 107
e 98 109
e 98 139
e 98 142
e 99 111
e 99 115
e 99 118
e 99 131
e 99 139
e 100 110
e 100 111
e 100 114
e 100 115
e 100 148
e 100 150
e 101 111
e 101 121
e 101 128
e 101 148
e 102 107
e 102 113
e 102 117
e 102 122
e 102 130
e 102 135
e 102 138
e 102 142
e 102 148
e 103 116
e 104 112
e 104 113
e 104 114
e 104 121
e 104 140
e 104 143
e 104 144
e 105 108
e 105 116
e 105 118
e 105 126
e 105 133
e 105 138
e 106 116
e 106 125
e 106 128
e 106 129
e 106 130
e 106 140
e 106 144
e 106 148
e 107 122
e 107 131
e 107 132
e 107 143
e 107 145
e 108 113
e 108 142
e 109 120
e 109 132
e 110 121
e 110 125
e 110 133
e 110 148
e 111 115
e 111 123
e 112 125
e 112 141
e 113 117
e 113 149
e 115 120
e 115 122
e 115 124
e 115 138
e 115 141
e 115 146
e 116 124
e 116 126
e 116 131
e 116 144
e 116 149
e 117 127
e 117 128
e 117 129
e 117 130
e 117 134
e 118 132
e 118 143
e 118 144
e 118 148
e 119 130
e 119 138
e 120 135
e 120 137
e 121 127
e 121 135
e 121 141
e 121 147
e 121 149
e 122 148
e 123 136
e 123 138
e 123 140
e 124 129
e 124 146
e 124 148
e 125 129
e 125 132
e 125 137
e 125 140
e 125 144
e 125 146
e 126 133
e 126 144
e 127 128
e 127 142
e 127 148
e 130 136
e 130 149
e 131 138
e 131 139
e 131 140
e 131 143
e 133 134
e 133 138
e 133 141
e 134 146
e 135 137
e 135 143
e 136 138
e 136 148
e 137 138
e 138 149
e 139 149
e 139 150
e 140 147
e 141 142
e 142 148
e 143 145
e 143 150
e 144 147
